VRPTWMS/instances/mip/fuel/4/N4-C_DV100-C_SV30_F6_8_No_1.lp
\ N4-C_DV100-C_SV30_F6_8

Minimize
  199200.0 x_d0_c1 + 199200.0 z_d0_c1 + 352300.0 x_d0_c2 + 352300.0 z_d0_c2 + 197000.0 x_d0_c3 + 197000.0 z_d0_c3 + 269300.0 x_d0_c4 + 269300.0 z_d0_c4 + 500000.0 x_c1_c2 + 500000.0 x_c2_c1 + 500000.0 z_c1_c2 + 500000.0 z_c2_c1 + 22400.0 x_c1_c3 + 22400.0 x_c3_c1 + 22400.0 z_c1_c3 + 22400.0 z_c3_c1 + 328000.0 x_c1_c4 + 328000.0 x_c4_c1 + 328000.0 z_c1_c4 + 328000.0 z_c4_c1 + 485100.0 x_c2_c3 + 485100.0 x_c3_c2 + 485100.0 z_c2_c3 + 485100.0 z_c3_c2 + 228000.0 x_c2_c4 + 228000.0 x_c4_c2 + 228000.0 z_c2_c4 + 228000.0 z_c4_c2 + 308100.0 x_c3_c4 + 308100.0 x_c4_c3 + 308100.0 z_c3_c4 + 308100.0 z_c4_c3 + 199200.0 x_c1_dN + 199200.0 z_c1_dN + 352300.0 x_c2_dN + 352300.0 z_c2_dN + 197000.0 x_c3_dN + 197000.0 z_c3_dN + 269300.0 x_c4_dN + 269300.0 z_c4_dN + 1.0E7 x_d0_c1 + 1.0E7 z_d0_c1 + 1.0E7 x_d0_c2 + 1.0E7 z_d0_c2 + 1.0E7 x_d0_c3 + 1.0E7 z_d0_c3 + 1.0E7 x_d0_c4 + 1.0E7 z_d0_c4
Subject To
  Successor_DV_c1: x_c1_c2 + x_c1_c3 + x_c1_c4 + x_c1_dN = 1
  Successor_DV_c2: x_c2_c1 + x_c2_c3 + x_c2_c4 + x_c2_dN = 1
  Successor_DV_c3: x_c3_c1 + x_c3_c2 + x_c3_c4 + x_c3_dN = 1
  Successor_DV_c4: x_c4_c1 + x_c4_c2 + x_c4_c3 + x_c4_dN = 1
  Successor_SV_c1: z_c1_c2 + z_c1_c3 + z_c1_c4 + z_c1_dN <= 1
  Successor_SV_c2: z_c2_c1 + z_c2_c3 + z_c2_c4 + z_c2_dN <= 1
  Successor_SV_c3: z_c3_c1 + z_c3_c2 + z_c3_c4 + z_c3_dN <= 1
  Successor_SV_c4: z_c4_c1 + z_c4_c2 + z_c4_c3 + z_c4_dN <= 1
  Flow_DV_c1: x_d0_c1 + x_c2_c1 + x_c3_c1 + x_c4_c1 - x_c1_dN - x_c1_c2 - x_c1_c3 - x_c1_c4 = 0
  Flow_DV_c2: x_d0_c2 + x_c1_c2 + x_c3_c2 + x_c4_c2 - x_c2_dN - x_c2_c1 - x_c2_c3 - x_c2_c4 = 0
  Flow_DV_c3: x_d0_c3 + x_c1_c3 + x_c2_c3 + x_c4_c3 - x_c3_dN - x_c3_c1 - x_c3_c2 - x_c3_c4 = 0
  Flow_DV_c4: x_d0_c4 + x_c1_c4 + x_c2_c4 + x_c3_c4 - x_c4_dN - x_c4_c1 - x_c4_c2 - x_c4_c3 = 0
  Flow_SV_c1: z_d0_c1 + z_c2_c1 + z_c3_c1 + z_c4_c1 - z_c1_dN - z_c1_c2 - z_c1_c3 - z_c1_c4 = 0
  Flow_SV_c2: z_d0_c2 + z_c1_c2 + z_c3_c2 + z_c4_c2 - z_c2_dN - z_c2_c1 - z_c2_c3 - z_c2_c4 = 0
  Flow_SV_c3: z_d0_c3 + z_c1_c3 + z_c2_c3 + z_c4_c3 - z_c3_dN - z_c3_c1 - z_c3_c2 - z_c3_c4 = 0
  Flow_SV_c4: z_d0_c4 + z_c1_c4 + z_c2_c4 + z_c3_c4 - z_c4_dN - z_c4_c1 - z_c4_c2 - z_c4_c3 = 0
  travelDV_d0_c1: tauD_d0 - tauD_c1 + 1049800.0 x_d0_c1 <= 1000000.0
  travelDV_d0_c2: tauD_d0 - tauD_c2 + 1088075.0 x_d0_c2 <= 1000000.0
  travelDV_d0_c3: tauD_d0 - tauD_c3 + 1049250.0 x_d0_c3 <= 1000000.0
  travelDV_d0_c4: tauD_d0 - tauD_c4 + 1067325.0 x_d0_c4 <= 1000000.0
  travelDV_c1_c2: tauD_c1 - tauD_c2 + 1145000.0 x_c1_c2 + 80000.0 p_1 <= 1000000.0
  travelDV_c1_c3: tauD_c1 - tauD_c3 + 1025600.0 x_c1_c3 + 80000.0 p_1 <= 1000000.0
  travelDV_c1_c4: tauD_c1 - tauD_c4 + 1102000.0 x_c1_c4 + 80000.0 p_1 <= 1000000.0
  travelDV_c2_c1: tauD_c2 - tauD_c1 + 1195000.0 x_c2_c1 + 80000.0 p_2 <= 1000000.0
  travelDV_c2_c3: tauD_c2 - tauD_c3 + 1191275.0 x_c2_c3 + 80000.0 p_2 <= 1000000.0
  travelDV_c2_c4: tauD_c2 - tauD_c4 + 1127000.0 x_c2_c4 + 80000.0 p_2 <= 1000000.0
  travelDV_c3_c1: tauD_c3 - tauD_c1 + 1065600.0 x_c3_c1 + 80000.0 p_3 <= 1000000.0
  travelDV_c3_c2: tauD_c3 - tauD_c2 + 1181275.0 x_c3_c2 + 80000.0 p_3 <= 1000000.0
  travelDV_c3_c4: tauD_c3 - tauD_c4 + 1137025.0 x_c3_c4 + 80000.0 p_3 <= 1000000.0
  travelDV_c4_c1: tauD_c4 - tauD_c1 + 1132000.0 x_c4_c1 + 80000.0 p_4 <= 1000000.0
  travelDV_c4_c2: tauD_c4 - tauD_c2 + 1107000.0 x_c4_c2 + 80000.0 p_4 <= 1000000.0
  travelDV_c4_c3: tauD_c4 - tauD_c3 + 1127025.0 x_c4_c3 + 80000.0 p_4 <= 1000000.0
  TravelSV_d0_c1: tauS_d0 - tauS_c1 + 1000000.0 z_d0_c1 <= 950200.0
  TravelSV_d0_c2: tauS_d0 - tauS_c2 + 1000000.0 z_d0_c2 <= 911925.0
  TravelSV_d0_c3: tauS_d0 - tauS_c3 + 1000000.0 z_d0_c3 <= 950750.0
  TravelSV_d0_c4: tauS_d0 - tauS_c4 + 1000000.0 z_d0_c4 <= 932675.0
  TravelSV_d0_dN: tauS_d0 - tauS_dN + 1000000.0 z_d0_dN <= 1000000.0
  TravelSV_c1_c2: tauS_c1 - tauS_c2 + 1000000.0 z_c1_c2 <= 795000.0
  TravelSV_c1_c3: tauS_c1 - tauS_c3 + 1000000.0 z_c1_c3 <= 914400.0
  TravelSV_c1_c4: tauS_c1 - tauS_c4 + 1000000.0 z_c1_c4 <= 838000.0
  TravelSV_c1_dN: tauS_c1 - tauS_dN + 1000000.0 z_c1_dN <= 870200.0
  TravelSV_c2_c1: tauS_c2 - tauS_c1 + 1000000.0 z_c2_c1 <= 795000.0
  TravelSV_c2_c3: tauS_c2 - tauS_c3 + 1000000.0 z_c2_c3 <= 798725.0
  TravelSV_c2_c4: tauS_c2 - tauS_c4 + 1000000.0 z_c2_c4 <= 863000.0
  TravelSV_c2_dN: tauS_c2 - tauS_dN + 1000000.0 z_c2_dN <= 831925.0
  TravelSV_c3_c1: tauS_c3 - tauS_c1 + 1000000.0 z_c3_c1 <= 914400.0
  TravelSV_c3_c2: tauS_c3 - tauS_c2 + 1000000.0 z_c3_c2 <= 798725.0
  TravelSV_c3_c4: tauS_c3 - tauS_c4 + 1000000.0 z_c3_c4 <= 842975.0
  TravelSV_c3_dN: tauS_c3 - tauS_dN + 1000000.0 z_c3_dN <= 870750.0
  TravelSV_c4_c1: tauS_c4 - tauS_c1 + 1000000.0 z_c4_c1 <= 838000.0
  TravelSV_c4_c2: tauS_c4 - tauS_c2 + 1000000.0 z_c4_c2 <= 863000.0
  TravelSV_c4_c3: tauS_c4 - tauS_c3 + 1000000.0 z_c4_c3 <= 842975.0
  TravelSV_c4_dN: tauS_c4 - tauS_dN + 1000000.0 z_c4_dN <= 852675.0
  time_window_c1_e: tauD_c1 + 80000.0 o_1 >= 700000.0
  time_window_c1_l: tauD_c1 + 80000.0 o_1 <= 850000.0
  time_window_c2_e: tauD_c2 + 80000.0 o_2 >= 500000.0
  time_window_c2_l: tauD_c2 + 80000.0 o_2 <= 650000.0
  time_window_c3_e: tauD_c3 + 80000.0 o_3 >= 0.0
  time_window_c3_l: tauD_c3 + 80000.0 o_3 <= 1000000.0
  time_window_c4_e: tauD_c4 + 80000.0 o_4 >= 650000.0
  time_window_c4_l: tauD_c4 + 80000.0 o_4 <= 800000.0
  SyncA_c1_c2_c2: 20000.0 o_1 + 1000000.0 x_c1_c2 - tauD_c2 - 125000.0 z_c1_c2 + [ tauS_c2 * z_c1_c2 ] <= 875000.0
  SyncA_c1_c2_c3: 20000.0 o_1 + 1000000.0 x_c1_c2 - tauD_c2 - 5600.0 z_c1_c3 + [ tauS_c3 * z_c1_c3 ] <= 875000.0
  SyncA_c1_c2_c4: 20000.0 o_1 + 1000000.0 x_c1_c2 - tauD_c2 - 82000.0 z_c1_c4 + [ tauS_c4 * z_c1_c4 ] <= 875000.0
  SyncA_c1_c2_dN: 20000.0 o_1 + 1000000.0 x_c1_c2 - tauD_c2 - 49800.0 z_c1_dN + [ tauS_dN * z_c1_dN ] <= 875000.0
  SyncA_c1_c3_c2: 20000.0 o_1 + 1000000.0 x_c1_c3 - tauD_c3 - 125000.0 z_c1_c2 + [ tauS_c2 * z_c1_c2 ] <= 994400.0
  SyncA_c1_c3_c3: 20000.0 o_1 + 1000000.0 x_c1_c3 - tauD_c3 - 5600.0 z_c1_c3 + [ tauS_c3 * z_c1_c3 ] <= 994400.0
  SyncA_c1_c3_c4: 20000.0 o_1 + 1000000.0 x_c1_c3 - tauD_c3 - 82000.0 z_c1_c4 + [ tauS_c4 * z_c1_c4 ] <= 994400.0
  SyncA_c1_c3_dN: 20000.0 o_1 + 1000000.0 x_c1_c3 - tauD_c3 - 49800.0 z_c1_dN + [ tauS_dN * z_c1_dN ] <= 994400.0
  SyncA_c1_c4_c2: 20000.0 o_1 + 1000000.0 x_c1_c4 - tauD_c4 - 125000.0 z_c1_c2 + [ tauS_c2 * z_c1_c2 ] <= 918000.0
  SyncA_c1_c4_c3: 20000.0 o_1 + 1000000.0 x_c1_c4 - tauD_c4 - 5600.0 z_c1_c3 + [ tauS_c3 * z_c1_c3 ] <= 918000.0
  SyncA_c1_c4_c4: 20000.0 o_1 + 1000000.0 x_c1_c4 - tauD_c4 - 82000.0 z_c1_c4 + [ tauS_c4 * z_c1_c4 ] <= 918000.0
  SyncA_c1_c4_dN: 20000.0 o_1 + 1000000.0 x_c1_c4 - tauD_c4 - 49800.0 z_c1_dN + [ tauS_dN * z_c1_dN ] <= 918000.0
  SyncA_c1_dN_c2: 20000.0 o_1 + 1000000.0 x_c1_dN - tauD_dN - 125000.0 z_c1_c2 + [ tauS_c2 * z_c1_c2 ] <= 950200.0
  SyncA_c1_dN_c3: 20000.0 o_1 + 1000000.0 x_c1_dN - tauD_dN - 5600.0 z_c1_c3 + [ tauS_c3 * z_c1_c3 ] <= 950200.0
  SyncA_c1_dN_c4: 20000.0 o_1 + 1000000.0 x_c1_dN - tauD_dN - 82000.0 z_c1_c4 + [ tauS_c4 * z_c1_c4 ] <= 950200.0
  SyncA_c1_dN_dN: 20000.0 o_1 + 1000000.0 x_c1_dN - tauD_dN - 49800.0 z_c1_dN + [ tauS_dN * z_c1_dN ] <= 950200.0
  SyncA_c2_c1_c1: 70000.0 o_2 + 1000000.0 x_c2_c1 - tauD_c1 - 125000.0 z_c2_c1 + [ tauS_c1 * z_c2_c1 ] <= 875000.0
  SyncA_c2_c1_c3: 70000.0 o_2 + 1000000.0 x_c2_c1 - tauD_c1 - 121275.0 z_c2_c3 + [ tauS_c3 * z_c2_c3 ] <= 875000.0
  SyncA_c2_c1_c4: 70000.0 o_2 + 1000000.0 x_c2_c1 - tauD_c1 - 57000.0 z_c2_c4 + [ tauS_c4 * z_c2_c4 ] <= 875000.0
  SyncA_c2_c1_dN: 70000.0 o_2 + 1000000.0 x_c2_c1 - tauD_c1 - 88075.0 z_c2_dN + [ tauS_dN * z_c2_dN ] <= 875000.0
  SyncA_c2_c3_c1: 70000.0 o_2 + 1000000.0 x_c2_c3 - tauD_c3 - 125000.0 z_c2_c1 + [ tauS_c1 * z_c2_c1 ] <= 878725.0
  SyncA_c2_c3_c3: 70000.0 o_2 + 1000000.0 x_c2_c3 - tauD_c3 - 121275.0 z_c2_c3 + [ tauS_c3 * z_c2_c3 ] <= 878725.0
  SyncA_c2_c3_c4: 70000.0 o_2 + 1000000.0 x_c2_c3 - tauD_c3 - 57000.0 z_c2_c4 + [ tauS_c4 * z_c2_c4 ] <= 878725.0
  SyncA_c2_c3_dN: 70000.0 o_2 + 1000000.0 x_c2_c3 - tauD_c3 - 88075.0 z_c2_dN + [ tauS_dN * z_c2_dN ] <= 878725.0
  SyncA_c2_c4_c1: 70000.0 o_2 + 1000000.0 x_c2_c4 - tauD_c4 - 125000.0 z_c2_c1 + [ tauS_c1 * z_c2_c1 ] <= 943000.0
  SyncA_c2_c4_c3: 70000.0 o_2 + 1000000.0 x_c2_c4 - tauD_c4 - 121275.0 z_c2_c3 + [ tauS_c3 * z_c2_c3 ] <= 943000.0
  SyncA_c2_c4_c4: 70000.0 o_2 + 1000000.0 x_c2_c4 - tauD_c4 - 57000.0 z_c2_c4 + [ tauS_c4 * z_c2_c4 ] <= 943000.0
  SyncA_c2_c4_dN: 70000.0 o_2 + 1000000.0 x_c2_c4 - tauD_c4 - 88075.0 z_c2_dN + [ tauS_dN * z_c2_dN ] <= 943000.0
  SyncA_c2_dN_c1: 70000.0 o_2 + 1000000.0 x_c2_dN - tauD_dN - 125000.0 z_c2_c1 + [ tauS_c1 * z_c2_c1 ] <= 911925.0
  SyncA_c2_dN_c3: 70000.0 o_2 + 1000000.0 x_c2_dN - tauD_dN - 121275.0 z_c2_c3 + [ tauS_c3 * z_c2_c3 ] <= 911925.0
  SyncA_c2_dN_c4: 70000.0 o_2 + 1000000.0 x_c2_dN - tauD_dN - 57000.0 z_c2_c4 + [ tauS_c4 * z_c2_c4 ] <= 911925.0
  SyncA_c2_dN_dN: 70000.0 o_2 + 1000000.0 x_c2_dN - tauD_dN - 88075.0 z_c2_dN + [ tauS_dN * z_c2_dN ] <= 911925.0
  SyncA_c3_c1_c1: 60000.0 o_3 + 1000000.0 x_c3_c1 - tauD_c1 - 5600.0 z_c3_c1 + [ tauS_c1 * z_c3_c1 ] <= 994400.0
  SyncA_c3_c1_c2: 60000.0 o_3 + 1000000.0 x_c3_c1 - tauD_c1 - 121275.0 z_c3_c2 + [ tauS_c2 * z_c3_c2 ] <= 994400.0
  SyncA_c3_c1_c4: 60000.0 o_3 + 1000000.0 x_c3_c1 - tauD_c1 - 77025.0 z_c3_c4 + [ tauS_c4 * z_c3_c4 ] <= 994400.0
  SyncA_c3_c1_dN: 60000.0 o_3 + 1000000.0 x_c3_c1 - tauD_c1 - 49250.0 z_c3_dN + [ tauS_dN * z_c3_dN ] <= 994400.0
  SyncA_c3_c2_c1: 60000.0 o_3 + 1000000.0 x_c3_c2 - tauD_c2 - 5600.0 z_c3_c1 + [ tauS_c1 * z_c3_c1 ] <= 878725.0
  SyncA_c3_c2_c2: 60000.0 o_3 + 1000000.0 x_c3_c2 - tauD_c2 - 121275.0 z_c3_c2 + [ tauS_c2 * z_c3_c2 ] <= 878725.0
  SyncA_c3_c2_c4: 60000.0 o_3 + 1000000.0 x_c3_c2 - tauD_c2 - 77025.0 z_c3_c4 + [ tauS_c4 * z_c3_c4 ] <= 878725.0
  SyncA_c3_c2_dN: 60000.0 o_3 + 1000000.0 x_c3_c2 - tauD_c2 - 49250.0 z_c3_dN + [ tauS_dN * z_c3_dN ] <= 878725.0
  SyncA_c3_c4_c1: 60000.0 o_3 + 1000000.0 x_c3_c4 - tauD_c4 - 5600.0 z_c3_c1 + [ tauS_c1 * z_c3_c1 ] <= 922975.0
  SyncA_c3_c4_c2: 60000.0 o_3 + 1000000.0 x_c3_c4 - tauD_c4 - 121275.0 z_c3_c2 + [ tauS_c2 * z_c3_c2 ] <= 922975.0
  SyncA_c3_c4_c4: 60000.0 o_3 + 1000000.0 x_c3_c4 - tauD_c4 - 77025.0 z_c3_c4 + [ tauS_c4 * z_c3_c4 ] <= 922975.0
  SyncA_c3_c4_dN: 60000.0 o_3 + 1000000.0 x_c3_c4 - tauD_c4 - 49250.0 z_c3_dN + [ tauS_dN * z_c3_dN ] <= 922975.0
  SyncA_c3_dN_c1: 60000.0 o_3 + 1000000.0 x_c3_dN - tauD_dN - 5600.0 z_c3_c1 + [ tauS_c1 * z_c3_c1 ] <= 950750.0
  SyncA_c3_dN_c2: 60000.0 o_3 + 1000000.0 x_c3_dN - tauD_dN - 121275.0 z_c3_c2 + [ tauS_c2 * z_c3_c2 ] <= 950750.0
  SyncA_c3_dN_c4: 60000.0 o_3 + 1000000.0 x_c3_dN - tauD_dN - 77025.0 z_c3_c4 + [ tauS_c4 * z_c3_c4 ] <= 950750.0
  SyncA_c3_dN_dN: 60000.0 o_3 + 1000000.0 x_c3_dN - tauD_dN - 49250.0 z_c3_dN + [ tauS_dN * z_c3_dN ] <= 950750.0
  SyncA_c4_c1_c1: 50000.0 o_4 + 1000000.0 x_c4_c1 - tauD_c1 - 82000.0 z_c4_c1 + [ tauS_c1 * z_c4_c1 ] <= 918000.0
  SyncA_c4_c1_c2: 50000.0 o_4 + 1000000.0 x_c4_c1 - tauD_c1 - 57000.0 z_c4_c2 + [ tauS_c2 * z_c4_c2 ] <= 918000.0
  SyncA_c4_c1_c3: 50000.0 o_4 + 1000000.0 x_c4_c1 - tauD_c1 - 77025.0 z_c4_c3 + [ tauS_c3 * z_c4_c3 ] <= 918000.0
  SyncA_c4_c1_dN: 50000.0 o_4 + 1000000.0 x_c4_c1 - tauD_c1 - 67325.0 z_c4_dN + [ tauS_dN * z_c4_dN ] <= 918000.0
  SyncA_c4_c2_c1: 50000.0 o_4 + 1000000.0 x_c4_c2 - tauD_c2 - 82000.0 z_c4_c1 + [ tauS_c1 * z_c4_c1 ] <= 943000.0
  SyncA_c4_c2_c2: 50000.0 o_4 + 1000000.0 x_c4_c2 - tauD_c2 - 57000.0 z_c4_c2 + [ tauS_c2 * z_c4_c2 ] <= 943000.0
  SyncA_c4_c2_c3: 50000.0 o_4 + 1000000.0 x_c4_c2 - tauD_c2 - 77025.0 z_c4_c3 + [ tauS_c3 * z_c4_c3 ] <= 943000.0
  SyncA_c4_c2_dN: 50000.0 o_4 + 1000000.0 x_c4_c2 - tauD_c2 - 67325.0 z_c4_dN + [ tauS_dN * z_c4_dN ] <= 943000.0
  SyncA_c4_c3_c1: 50000.0 o_4 + 1000000.0 x_c4_c3 - tauD_c3 - 82000.0 z_c4_c1 + [ tauS_c1 * z_c4_c1 ] <= 922975.0
  SyncA_c4_c3_c2: 50000.0 o_4 + 1000000.0 x_c4_c3 - tauD_c3 - 57000.0 z_c4_c2 + [ tauS_c2 * z_c4_c2 ] <= 922975.0
  SyncA_c4_c3_c3: 50000.0 o_4 + 1000000.0 x_c4_c3 - tauD_c3 - 77025.0 z_c4_c3 + [ tauS_c3 * z_c4_c3 ] <= 922975.0
  SyncA_c4_c3_dN: 50000.0 o_4 + 1000000.0 x_c4_c3 - tauD_c3 - 67325.0 z_c4_dN + [ tauS_dN * z_c4_dN ] <= 922975.0
  SyncA_c4_dN_c1: 50000.0 o_4 + 1000000.0 x_c4_dN - tauD_dN - 82000.0 z_c4_c1 + [ tauS_c1 * z_c4_c1 ] <= 932675.0
  SyncA_c4_dN_c2: 50000.0 o_4 + 1000000.0 x_c4_dN - tauD_dN - 57000.0 z_c4_c2 + [ tauS_c2 * z_c4_c2 ] <= 932675.0
  SyncA_c4_dN_c3: 50000.0 o_4 + 1000000.0 x_c4_dN - tauD_dN - 77025.0 z_c4_c3 + [ tauS_c3 * z_c4_c3 ] <= 932675.0
  SyncA_c4_dN_dN: 50000.0 o_4 + 1000000.0 x_c4_dN - tauD_dN - 67325.0 z_c4_dN + [ tauS_dN * z_c4_dN ] <= 932675.0
  SVFirst_c1_c2: tauS_c2 - tauD_c1 + 20000.0 o_1 - 1000000.0 z_c1_c2 >= -775000.0
  SVFirst_c1_c3: tauS_c3 - tauD_c1 + 20000.0 o_1 - 1000000.0 z_c1_c3 >= -894400.0
  SVFirst_c1_c4: tauS_c4 - tauD_c1 + 20000.0 o_1 - 1000000.0 z_c1_c4 >= -818000.0
  SVFirst_c1_dN:  tauS_dN - tauD_c1 + 20000.0 o_1 - 1000000.0 z_c1_dN >= -850200.0
  SVFirst_c2_c1: tauS_c1 - tauD_c2 + 70000.0 o_2 - 1000000.0 z_c2_c1 >= -725000.0
  SVFirst_c2_c3: tauS_c3 - tauD_c2 + 70000.0 o_2 - 1000000.0 z_c2_c3 >= -728725.0
  SVFirst_c2_c4: tauS_c4 - tauD_c2 + 70000.0 o_2 - 1000000.0 z_c2_c4 >= -793000.0
  SVFirst_c2_dN:  tauS_dN - tauD_c2 + 70000.0 o_2 - 1000000.0 z_c2_dN >= -761925.0
  SVFirst_c3_c1: tauS_c1 - tauD_c3 + 60000.0 o_3 - 1000000.0 z_c3_c1 >= -854400.0
  SVFirst_c3_c2: tauS_c2 - tauD_c3 + 60000.0 o_3 - 1000000.0 z_c3_c2 >= -738725.0
  SVFirst_c3_c4: tauS_c4 - tauD_c3 + 60000.0 o_3 - 1000000.0 z_c3_c4 >= -782975.0
  SVFirst_c3_dN:  tauS_dN - tauD_c3 + 60000.0 o_3 - 1000000.0 z_c3_dN >= -810750.0
  SVFirst_c4_c1: tauS_c1 - tauD_c4 + 50000.0 o_4 - 1000000.0 z_c4_c1 >= -788000.0
  SVFirst_c4_c2: tauS_c2 - tauD_c4 + 50000.0 o_4 - 1000000.0 z_c4_c2 >= -813000.0
  SVFirst_c4_c3: tauS_c3 - tauD_c4 + 50000.0 o_4 - 1000000.0 z_c4_c3 >= -792975.0
  SVFirst_c4_dN:  tauS_dN - tauD_c4 + 50000.0 o_4 - 1000000.0 z_c4_dN >= -802675.0
  Precedence_Swap_c1:  p_1 - z_d0_c1 - z_c2_c1 - z_c3_c1 - z_c4_c1 = 0
  Precedence_Swap_c2:  p_2 - z_d0_c2 - z_c1_c2 - z_c3_c2 - z_c4_c2 = 0
  Precedence_Swap_c3:  p_3 - z_d0_c3 - z_c1_c3 - z_c2_c3 - z_c4_c3 = 0
  Precedence_Swap_c4:  p_4 - z_d0_c4 - z_c1_c4 - z_c2_c4 - z_c3_c4 = 0
  Order_c1:  o_1 - p_1 <= 0
  Order_c2:  o_2 - p_2 <= 0
  Order_c3:  o_3 - p_3 <= 0
  Order_c4:  o_4 - p_4 <= 0
  WorkingTimeS_c1:  tauS_c1 <= 870200.0
  WorkingTimeS_c2:  tauS_c2 <= 831925.0
  WorkingTimeS_c3:  tauS_c3 <= 870750.0
  WorkingTimeS_c4:  tauS_c4 <= 852675.0
  Freight_c1_c2:  k_c2 - k_c1 + 1000000.0 x_c1_c2 <= 950000.0
  Freight_c1_c3:  k_c3 - k_c1 + 1000000.0 x_c1_c3 <= 950000.0
  Freight_c1_c4:  k_c4 - k_c1 + 1000000.0 x_c1_c4 <= 950000.0
  Freight_c1_dN:  k_dN - k_c1 + 1000000.0 x_c1_dN <= 950000.0
  Freight_c2_c1:  k_c1 - k_c2 + 1000000.0 x_c2_c1 <= 960000.0
  Freight_c2_c3:  k_c3 - k_c2 + 1000000.0 x_c2_c3 <= 960000.0
  Freight_c2_c4:  k_c4 - k_c2 + 1000000.0 x_c2_c4 <= 960000.0
  Freight_c2_dN:  k_dN - k_c2 + 1000000.0 x_c2_dN <= 960000.0
  Freight_c3_c1:  k_c1 - k_c3 + 1000000.0 x_c3_c1 <= 940000.0
  Freight_c3_c2:  k_c2 - k_c3 + 1000000.0 x_c3_c2 <= 940000.0
  Freight_c3_c4:  k_c4 - k_c3 + 1000000.0 x_c3_c4 <= 940000.0
  Freight_c3_dN:  k_dN - k_c3 + 1000000.0 x_c3_dN <= 940000.0
  Freight_c4_c1:  k_c1 - k_c4 + 1000000.0 x_c4_c1 <= 960000.0
  Freight_c4_c2:  k_c2 - k_c4 + 1000000.0 x_c4_c2 <= 960000.0
  Freight_c4_c3:  k_c3 - k_c4 + 1000000.0 x_c4_c3 <= 960000.0
  Freight_c4_dN:  k_dN - k_c4 + 1000000.0 x_c4_dN <= 960000.0
  FuelDV_d0_c1:  phi_c1 + 73326.0 x_d0_c1 <= 120000.0
  FuelDV_d0_c2:  phi_c2 + 83569.0 x_d0_c2 <= 120000.0
  FuelDV_d0_c3:  phi_c3 + 73179.0 x_d0_c3 <= 120000.0
  FuelDV_d0_c4:  phi_c4 + 78016.0 x_d0_c4 <= 120000.0
  FuelDV_c1_c2:  phi_c2 - phi_c1 + 93450.0 x_c1_c2 + [ phi_c1 * p_1 - 60000.0 x_c1_c2 * p_1 ] <= 60000.0
  FuelDV_c1_c3:  phi_c3 - phi_c1 + 61499.0 x_c1_c3 + [ phi_c1 * p_1 - 60000.0 x_c1_c3 * p_1 ] <= 60000.0
  FuelDV_c1_c4:  phi_c4 - phi_c1 + 81943.0 x_c1_c4 + [ phi_c1 * p_1 - 60000.0 x_c1_c4 * p_1 ] <= 60000.0
  FuelDV_c1_dN:  phi_dN - phi_c1 + 73326.0 x_c1_dN + [ phi_c1 * p_1 - 60000.0 x_c1_dN * p_1 ] <= 60000.0
  FuelDV_c2_c1:  phi_c1 - phi_c2 + 93450.0 x_c2_c1 + [ phi_c2 * p_2 - 60000.0 x_c2_c1 * p_2 ] <= 60000.0
  FuelDV_c2_c3:  phi_c3 - phi_c2 + 92453.0 x_c2_c3 + [ phi_c2 * p_2 - 60000.0 x_c2_c3 * p_2 ] <= 60000.0
  FuelDV_c2_c4:  phi_c4 - phi_c2 + 75253.0 x_c2_c4 + [ phi_c2 * p_2 - 60000.0 x_c2_c4 * p_2 ] <= 60000.0
  FuelDV_c2_dN:  phi_dN - phi_c2 + 83569.0 x_c2_dN + [ phi_c2 * p_2 - 60000.0 x_c2_dN * p_2 ] <= 60000.0
  FuelDV_c3_c1:  phi_c1 - phi_c3 + 61499.0 x_c3_c1 + [ phi_c3 * p_3 - 60000.0 x_c3_c1 * p_3 ] <= 60000.0
  FuelDV_c3_c2:  phi_c2 - phi_c3 + 92453.0 x_c3_c2 + [ phi_c3 * p_3 - 60000.0 x_c3_c2 * p_3 ] <= 60000.0
  FuelDV_c3_c4:  phi_c4 - phi_c3 + 80612.0 x_c3_c4 + [ phi_c3 * p_3 - 60000.0 x_c3_c4 * p_3 ] <= 60000.0
  FuelDV_c3_dN:  phi_dN - phi_c3 + 73179.0 x_c3_dN + [ phi_c3 * p_3 - 60000.0 x_c3_dN * p_3 ] <= 60000.0
  FuelDV_c4_c1:  phi_c1 - phi_c4 + 81943.0 x_c4_c1 + [ phi_c4 * p_4 - 60000.0 x_c4_c1 * p_4 ] <= 60000.0
  FuelDV_c4_c2:  phi_c2 - phi_c4 + 75253.0 x_c4_c2 + [ phi_c4 * p_4 - 60000.0 x_c4_c2 * p_4 ] <= 60000.0
  FuelDV_c4_c3:  phi_c3 - phi_c4 + 80612.0 x_c4_c3 + [ phi_c4 * p_4 - 60000.0 x_c4_c3 * p_4 ] <= 60000.0
  FuelDV_c4_dN:  phi_dN - phi_c4 + 78016.0 x_c4_dN + [ phi_c4 * p_4 - 60000.0 x_c4_dN * p_4 ] <= 60000.0
  FreightSV_c1_c2:  pi_c2 - pi_c1 - phi_c1 + 300000.0 z_c1_c2 <= 240000.0
  FreightSV_c1_c3:  pi_c3 - pi_c1 - phi_c1 + 300000.0 z_c1_c3 <= 240000.0
  FreightSV_c1_c4:  pi_c4 - pi_c1 - phi_c1 + 300000.0 z_c1_c4 <= 240000.0
  FreightSV_c1_dN:  pi_dN - pi_c1 - phi_c1 + 300000.0 z_c1_dN <= 240000.0
  FreightSV_c2_c1:  pi_c1 - pi_c2 - phi_c2 + 300000.0 z_c2_c1 <= 240000.0
  FreightSV_c2_c3:  pi_c3 - pi_c2 - phi_c2 + 300000.0 z_c2_c3 <= 240000.0
  FreightSV_c2_c4:  pi_c4 - pi_c2 - phi_c2 + 300000.0 z_c2_c4 <= 240000.0
  FreightSV_c2_dN:  pi_dN - pi_c2 - phi_c2 + 300000.0 z_c2_dN <= 240000.0
  FreightSV_c3_c1:  pi_c1 - pi_c3 - phi_c3 + 300000.0 z_c3_c1 <= 240000.0
  FreightSV_c3_c2:  pi_c2 - pi_c3 - phi_c3 + 300000.0 z_c3_c2 <= 240000.0
  FreightSV_c3_c4:  pi_c4 - pi_c3 - phi_c3 + 300000.0 z_c3_c4 <= 240000.0
  FreightSV_c3_dN:  pi_dN - pi_c3 - phi_c3 + 300000.0 z_c3_dN <= 240000.0
  FreightSV_c4_c1:  pi_c1 - pi_c4 - phi_c4 + 300000.0 z_c4_c1 <= 240000.0
  FreightSV_c4_c2:  pi_c2 - pi_c4 - phi_c4 + 300000.0 z_c4_c2 <= 240000.0
  FreightSV_c4_c3:  pi_c3 - pi_c4 - phi_c4 + 300000.0 z_c4_c3 <= 240000.0
  FreightSV_c4_dN:  pi_dN - pi_c4 - phi_c4 + 300000.0 z_c4_dN <= 240000.0
  WorkingTimeD_c1:  tauD_c1 + 80000.0 p_1 <= 930200.0
  WorkingTimeD_c2:  tauD_c2 + 80000.0 p_2 <= 841925.0
  WorkingTimeD_c3:  tauD_c3 + 80000.0 p_3 <= 890750.0
  WorkingTimeD_c4:  tauD_c4 + 80000.0 p_4 <= 882675.0
Bounds
0 <= k_c1 <= 1000000.0
0 <= k_c2 <= 1000000.0
0 <= k_c3 <= 1000000.0
0 <= k_c4 <= 1000000.0
0 <= k_dN <= 1000000.0
0 <= phi_c1 <= 60000.0
0 <= phi_c2 <= 60000.0
0 <= phi_c3 <= 60000.0
0 <= phi_c4 <= 60000.0
0 <= phi_dN <= 60000.0
0 <= pi_c1 <= 300000.0
0 <= pi_c2 <= 300000.0
0 <= pi_c3 <= 300000.0
0 <= pi_c4 <= 300000.0
0 <= pi_dN <= 300000.0
0 <= tauD_c1 <= 1000000.0
0 <= tauD_c2 <= 1000000.0
0 <= tauD_c3 <= 1000000.0
0 <= tauD_c4 <= 1000000.0
0 <= tauD_d0 <= 1000000.0
0 <= tauD_dN <= 1000000.0
0 <= tauS_c1 <= 1000000.0
0 <= tauS_c2 <= 1000000.0
0 <= tauS_c3 <= 1000000.0
0 <= tauS_c4 <= 1000000.0
0 <= tauS_d0 <= 1000000.0
0 <= tauS_dN <= 1000000.0
Generals
  k_c1
  k_c2
  k_c3
  k_c4
  k_dN
  phi_c1
  phi_c2
  phi_c3
  phi_c4
  phi_dN
  pi_c1
  pi_c2
  pi_c3
  pi_c4
  pi_dN
  tauD_c1
  tauD_c2
  tauD_c3
  tauD_c4
  tauD_d0
  tauD_dN
  tauS_c1
  tauS_c2
  tauS_c3
  tauS_c4
  tauS_d0
  tauS_dN
Binary
  o_1
  o_2
  o_3
  o_4
  p_1
  p_2
  p_3
  p_4
  x_c1_c2
  x_c1_c3
  x_c1_c4
  x_c1_dN
  x_c2_c1
  x_c2_c3
  x_c2_c4
  x_c2_dN
  x_c3_c1
  x_c3_c2
  x_c3_c4
  x_c3_dN
  x_c4_c1
  x_c4_c2
  x_c4_c3
  x_c4_dN
  x_d0_c1
  x_d0_c2
  x_d0_c3
  x_d0_c4
  z_c1_c2
  z_c1_c3
  z_c1_c4
  z_c1_dN
  z_c2_c1
  z_c2_c3
  z_c2_c4
  z_c2_dN
  z_c3_c1
  z_c3_c2
  z_c3_c4
  z_c3_dN
  z_c4_c1
  z_c4_c2
  z_c4_c3
  z_c4_dN
  z_d0_c1
  z_d0_c2
  z_d0_c3
  z_d0_c4
End
