VRPTWMS/instances/mip/fuel/4/N4-C_DV100-C_SV30_F6_8_No_1.log

Gurobi 6.0.4 (win64) logging started 06/21/15 19:06:16

Read LP format model from file C:\MT\repository\VRPTWMS\instances\mip\fuel\N4-C_DV100-C_SV30_F6_8_No_1.lp
Reading time = 0.01 seconds
(null): 129 rows, 76 columns, 459 nonzeros
Optimize a model with 129 rows, 76 columns and 459 nonzeros
Model has 80 quadratic constraints
Coefficient statistics:
  Matrix range    [1e+00, 1e+06]
  Objective range [2e+04, 1e+07]
  Bounds range    [1e+00, 1e+06]
  RHS range       [1e+00, 1e+06]
Presolve removed 16 rows and 9 columns
Presolve time: 0.03s
Presolved: 262 rows, 148 columns, 1134 nonzeros
Variable types: 68 continuous, 80 integer (57 binary)
Found heuristic solution: objective 4.203560e+07

Root relaxation: objective 4.826063e+06, 49 iterations, 0.00 seconds

    Nodes    |    Current Node    |     Objective Bounds      |     Work
 Expl Unexpl |  Obj  Depth IntInf | Incumbent    BestBd   Gap | It/Node Time

     0     0 4826062.69    0   17 4.2036e+07 4826062.69  88.5%     -    0s
H    0     0                    3.189510e+07 4826062.69  84.9%     -    0s
     0     0 1.0949e+07    0   21 3.1895e+07 1.0949e+07  65.7%     -    0s
H    0     0                    2.152130e+07 1.0949e+07  49.1%     -    0s
     0     0 1.1110e+07    0    1 2.1521e+07 1.1110e+07  48.4%     -    0s
H    0     0                    2.126820e+07 1.1110e+07  47.8%     -    0s
     0     0 1.1110e+07    0    1 2.1268e+07 1.1110e+07  47.8%     -    0s
     0     0 1.1116e+07    0    9 2.1268e+07 1.1116e+07  47.7%     -    0s
     0     0 1.1116e+07    0   10 2.1268e+07 1.1116e+07  47.7%     -    0s
     0     0 1.3327e+07    0    3 2.1268e+07 1.3327e+07  37.3%     -    0s
     0     0     cutoff    0      2.1268e+07 2.1268e+07  0.00%     -    0s

Cutting planes:
  Learned: 1
  Gomory: 1
  Clique: 1
  MIR: 1

Explored 0 nodes (143 simplex iterations) in 0.07 seconds
Thread count was 2 (of 4 available processors)

Optimal solution found (tolerance 1.00e-04)
Best objective 2.126820000000e+07, best bound 2.126820000000e+07, gap 0.0%
k_c1	110000.0
k_c2	190000.0
k_c3	60000.0
k_c4	150000.0
k_dN	-0.0
o_1	0.0
o_2	0.0
o_3	0.0
o_4	0.0
p_1	0.0
p_2	0.0
p_3	0.0
p_4	0.0
phi_c1	14678.0
phi_c2	35865.0
phi_c3	13179.0
phi_c4	20612.0
phi_dN	0.0
pi_c1	0.0
pi_c2	0.0
pi_c3	0.0
pi_c4	0.0
pi_dN	-0.0
tauD_c1	758800.0
tauD_c2	530375.0
tauD_c3	784400.0
tauD_c4	657375.0
tauD_d0	-0.0
tauD_dN	1000000.0
tauS_c1	0.0
tauS_c2	75000.0
tauS_c3	0.0
tauS_c4	32000.0
tauS_d0	-0.0
tauS_dN	0.0
x_c1_c3	1.0
x_c2_c4	1.0
x_c3_dN	1.0
x_c4_dN	1.0
x_d0_c1	1.0
x_d0_c2	1.0
